
Gurobi 8.1.0 (linux64, Python) logging started Wed Oct 31 08:46:44 2018

Academic license - for non-commercial use only
Warning: linear constraint 3 and linear constraint 4 have the same name "c4"
Optimize a model with 7 rows, 2 columns and 10 nonzeros
Variable types: 0 continuous, 2 integer (0 binary)
Coefficient statistics:
  Matrix range     [1e-01, 3e+01]
  Objective range  [5e-01, 1e+00]
  Bounds range     [0e+00, 0e+00]
  RHS range        [2e-01, 3e+01]
Presolve removed 2 rows and 0 columns
Presolve time: 0.01s

Explored 0 nodes (0 simplex iterations) in 0.04 seconds
Thread count was 1 (of 4 available processors)

Solution count 0

Model is infeasible or unbounded
Best objective -, best bound -, gap -

Gurobi 8.1.0 (linux64, Python) logging started Wed Oct 31 08:49:35 2018

Academic license - for non-commercial use only
Optimize a model with 7 rows, 2 columns and 10 nonzeros
Variable types: 0 continuous, 2 integer (0 binary)
Coefficient statistics:
  Matrix range     [1e-01, 3e+01]
  Objective range  [5e-01, 1e+00]
  Bounds range     [0e+00, 0e+00]
  RHS range        [2e-01, 3e+01]
Presolve removed 2 rows and 0 columns
Presolve time: 0.00s

Explored 0 nodes (0 simplex iterations) in 0.00 seconds
Thread count was 1 (of 4 available processors)

Solution count 0

Model is infeasible or unbounded
Best objective -, best bound -, gap -

Gurobi 8.1.0 (linux64, Python) logging started Wed Oct 31 08:52:26 2018

Academic license - for non-commercial use only
Optimize a model with 7 rows, 2 columns and 10 nonzeros
Variable types: 0 continuous, 2 integer (0 binary)
Coefficient statistics:
  Matrix range     [3e-02, 5e+00]
  Objective range  [5e-01, 1e+00]
  Bounds range     [0e+00, 0e+00]
  RHS range        [2e-01, 3e+01]
Presolve removed 2 rows and 0 columns
Presolve time: 0.00s

Explored 0 nodes (0 simplex iterations) in 0.00 seconds
Thread count was 1 (of 4 available processors)

Solution count 0

Model is infeasible or unbounded
Best objective -, best bound -, gap -

Gurobi 8.1.0 (linux64, Python) logging started Wed Oct 31 08:57:33 2018

Academic license - for non-commercial use only
Optimize a model with 7 rows, 2 columns and 10 nonzeros
Variable types: 0 continuous, 2 integer (0 binary)
Coefficient statistics:
  Matrix range     [3e-02, 5e+00]
  Objective range  [5e-01, 1e+00]
  Bounds range     [0e+00, 0e+00]
  RHS range        [2e-01, 3e+01]
Presolve removed 5 rows and 0 columns
Presolve time: 0.02s

Explored 0 nodes (0 simplex iterations) in 0.02 seconds
Thread count was 1 (of 4 available processors)

Solution count 0

Model is infeasible or unbounded
Best objective -, best bound -, gap -

Gurobi 8.1.0 (linux64, Python) logging started Wed Oct 31 08:57:51 2018

Academic license - for non-commercial use only
Optimize a model with 7 rows, 2 columns and 10 nonzeros
Variable types: 0 continuous, 2 integer (0 binary)
Coefficient statistics:
  Matrix range     [3e-02, 5e+00]
  Objective range  [5e-01, 1e+00]
  Bounds range     [0e+00, 0e+00]
  RHS range        [2e-01, 3e+01]
Presolve removed 5 rows and 0 columns
Presolve time: 0.03s
Presolved: 2 rows, 2 columns, 4 nonzeros
Variable types: 0 continuous, 2 integer (0 binary)
Found heuristic solution: objective 6.0000000

Root relaxation: cutoff, 0 iterations, 0.01 seconds

Explored 0 nodes (0 simplex iterations) in 0.05 seconds
Thread count was 4 (of 4 available processors)

Solution count 1: 6 

Optimal solution found (tolerance 1.00e-04)
Best objective 6.000000000000e+00, best bound 6.000000000000e+00, gap 0.0000%

Gurobi 8.1.0 (linux64, Python) logging started Wed Oct 31 08:58:20 2018

Academic license - for non-commercial use only
Optimize a model with 7 rows, 2 columns and 10 nonzeros
Variable types: 0 continuous, 2 integer (0 binary)
Coefficient statistics:
  Matrix range     [3e-02, 5e+00]
  Objective range  [5e-01, 1e+00]
  Bounds range     [0e+00, 0e+00]
  RHS range        [2e-01, 3e+01]
Presolve removed 5 rows and 0 columns
Presolve time: 0.00s
Presolved: 2 rows, 2 columns, 4 nonzeros
Variable types: 0 continuous, 2 integer (0 binary)
Found heuristic solution: objective 6.0000000

Root relaxation: cutoff, 0 iterations, 0.00 seconds

Explored 0 nodes (0 simplex iterations) in 0.00 seconds
Thread count was 4 (of 4 available processors)

Solution count 1: 6 

Optimal solution found (tolerance 1.00e-04)
Best objective 6.000000000000e+00, best bound 6.000000000000e+00, gap 0.0000%

Gurobi 8.1.0 (linux64, Python) logging started Wed Oct 31 08:58:26 2018

Academic license - for non-commercial use only
Optimize a model with 7 rows, 2 columns and 10 nonzeros
Variable types: 0 continuous, 2 integer (0 binary)
Coefficient statistics:
  Matrix range     [3e-02, 5e+00]
  Objective range  [5e-01, 1e+00]
  Bounds range     [0e+00, 0e+00]
  RHS range        [2e-01, 3e+01]
Presolve removed 6 rows and 0 columns
Presolve time: 0.00s
Presolved: 1 rows, 2 columns, 2 nonzeros
Variable types: 0 continuous, 2 integer (0 binary)
Found heuristic solution: objective 5.0000000

Root relaxation: cutoff, 0 iterations, 0.00 seconds

Explored 0 nodes (0 simplex iterations) in 0.00 seconds
Thread count was 4 (of 4 available processors)

Solution count 1: 5 

Optimal solution found (tolerance 1.00e-04)
Best objective 5.000000000000e+00, best bound 5.000000000000e+00, gap 0.0000%

Gurobi 8.1.0 (linux64, Python) logging started Wed Oct 31 09:05:41 2018

Academic license - for non-commercial use only

Gurobi 8.1.0 (linux64, Python) logging started Wed Oct 31 09:09:54 2018

Academic license - for non-commercial use only

Gurobi 8.1.0 (linux64, Python) logging started Wed Oct 31 09:10:51 2018

Academic license - for non-commercial use only

Gurobi 8.1.0 (linux64, Python) logging started Wed Oct 31 09:11:12 2018

Academic license - for non-commercial use only

Gurobi 8.1.0 (linux64, Python) logging started Wed Oct 31 09:13:08 2018

Academic license - for non-commercial use only

Gurobi 8.1.0 (linux64, Python) logging started Wed Oct 31 09:13:25 2018

Academic license - for non-commercial use only

Gurobi 8.1.0 (linux64, Python) logging started Wed Oct 31 09:14:07 2018

Academic license - for non-commercial use only
Warning: linear constraint 6 and linear constraint 7 have the same name "c7"

Gurobi 8.1.0 (linux64, Python) logging started Wed Oct 31 09:14:53 2018

Academic license - for non-commercial use only

Gurobi 8.1.0 (linux64, Python) logging started Wed Oct 31 09:16:48 2018

Academic license - for non-commercial use only

Gurobi 8.1.0 (linux64, Python) logging started Wed Oct 31 09:18:54 2018

Academic license - for non-commercial use only

Gurobi 8.1.0 (linux64, Python) logging started Wed Oct 31 09:19:37 2018

Academic license - for non-commercial use only
Optimize a model with 8 rows, 2 columns and 12 nonzeros
Variable types: 0 continuous, 2 integer (0 binary)
Coefficient statistics:
  Matrix range     [3e-02, 5e+00]
  Objective range  [5e-01, 1e+00]
  Bounds range     [0e+00, 0e+00]
  RHS range        [2e-01, 3e+01]
Presolve removed 8 rows and 2 columns
Presolve time: 0.00s
Presolve: All rows and columns removed

Explored 0 nodes (0 simplex iterations) in 0.00 seconds
Thread count was 1 (of 4 available processors)

Solution count 1: 5 

Optimal solution found (tolerance 1.00e-04)
Best objective 5.000000000000e+00, best bound 5.000000000000e+00, gap 0.0000%

Gurobi 8.1.0 (linux64, Python) logging started Wed Oct 31 09:19:47 2018

Academic license - for non-commercial use only
Optimize a model with 8 rows, 2 columns and 12 nonzeros
Variable types: 0 continuous, 2 integer (0 binary)
Coefficient statistics:
  Matrix range     [3e-02, 5e+00]
  Objective range  [5e-01, 1e+00]
  Bounds range     [0e+00, 0e+00]
  RHS range        [2e-01, 3e+01]
Presolve removed 6 rows and 0 columns
Presolve time: 0.00s
Presolved: 2 rows, 2 columns, 4 nonzeros
Variable types: 0 continuous, 2 integer (0 binary)
Found heuristic solution: objective 4.0000000

Root relaxation: objective 5.000000e+00, 1 iterations, 0.00 seconds

    Nodes    |    Current Node    |     Objective Bounds      |     Work
 Expl Unexpl |  Obj  Depth IntInf | Incumbent    BestBd   Gap | It/Node Time

     0     0    5.00000    0    2    4.00000    5.00000  25.0%     -    0s
H    0     0                       4.5000000    5.00000  11.1%     -    0s
     0     0 infeasible    0         4.50000    4.50000  0.00%     -    0s
     0     0 infeasible    0         4.50000    4.50000  0.00%     -    0s

Explored 1 nodes (1 simplex iterations) in 0.03 seconds
Thread count was 4 (of 4 available processors)

Solution count 2: 4.5 4 

Optimal solution found (tolerance 1.00e-04)
Best objective 4.500000000000e+00, best bound 4.500000000000e+00, gap 0.0000%
